NAME: tsp40_17
COMMENT: 40-tsp problem (Padberg/Rinaldi)
TYPE: TSP
DIMENSION: 40
EDGE_WEIGHT_TYPE : EUC_2D
NODE_COORD_SECTION
1 36 30
2 23 28
3 14 29
4 19 5
5 29 3
6 20 3
7 35 16
8 19 39
9 18 7
10 18 6
11 15 1
12 24 34
13 38 11
14 36 4
15 30 9
16 18 24
17 37 31
18 34 33
19 22 27
20 18 1
21 27 16
22 19 17
23 5 20
24 38 17
25 20 38
26 30 3
27 32 12
28 35 33
29 34 32
30 14 22
31 18 15
32 22 21
33 35 15
34 38 38
35 29 31
36 22 3
37 30 32
38 12 4
39 22 33
40 20 7
